db/inputs/1929129730789028766120458317337918263.smt2
(set-logic QF_FP)
(declare-const x0 (_ FloatingPoint 8 24))
(declare-const x1 (_ FloatingPoint 8 24))
(declare-const x2 (_ FloatingPoint 8 24))
(declare-const x3 (_ FloatingPoint 8 24))
(declare-const x4 (_ FloatingPoint 8 24))
(declare-const x5 (_ FloatingPoint 8 24))
(declare-const x6 (_ FloatingPoint 8 24))
(declare-const x7 (_ FloatingPoint 8 24))
(declare-const x8 (_ FloatingPoint 8 24))
(declare-const x9 (_ FloatingPoint 8 24))
(declare-const x10 (_ FloatingPoint 8 24))
(declare-const x11 (_ FloatingPoint 8 24))
(assert (fp.lt (fp.add RNE x11 x3) (fp.sub RNE x11 x4)))
(assert (fp.eq (fp.sub RNE x3 x8) (fp.div RNE x4 x1)))
(assert (fp.geq (fp.div RNE x6 x5) (fp.sub RNE x9 x11)))
(check-sat)
