db/data/1929129730789028766120458317337918263.z3.out
sat
-------------------
7.877234663
